
Welcome to IBM(R) ILOG(R) CPLEX(R) Interactive Optimizer 22.1.1.0
  with Simplex, Mixed Integer & Barrier Optimizers
5725-A06 5725-A29 5724-Y48 5724-Y49 5724-Y54 5724-Y55 5655-Y21
Copyright IBM Corp. 1988, 2022.  All Rights Reserved.

Type 'help' for a list of available commands.
Type 'help' followed by a command name for more
information on commands.

CPLEX> Selected objective sense:  MINIMIZE
Selected objective  name:  00000000
Selected RHS        name:  RHS1
Selected bound      name:  BOUND
Problem 'ee.mps' read.
Read time = 0.02 sec. (3.17 ticks)
CPLEX> New value for time limit in seconds: 7200
CPLEX> New value for parallel optimization mode: -1
CPLEX> New value for default parallel thread count: 40
CPLEX> New value for mixed integer optimality gap tolerance: 1e-13
CPLEX> Version identifier: 22.1.1.0 | 2022-11-28 | 9160aff4d
CPXPARAM_Threads                                 40
CPXPARAM_Parallel                                -1
CPXPARAM_TimeLimit                               7200
CPXPARAM_MIP_Tolerances_MIPGap                   1e-13
Found incumbent of value 0.000000 after 0.00 sec. (0.31 ticks)
Tried aggregator 4 times.
MIP Presolve eliminated 256 rows and 3267 columns.
MIP Presolve modified 6042 coefficients.
Aggregator did 777 substitutions.
Reduced MIP has 3495 rows, 7238 columns, and 26706 nonzeros.
Reduced MIP has 7238 binaries, 0 generals, 0 SOSs, and 0 indicators.
Presolve time = 0.08 sec. (85.65 ticks)
Probing time = 0.03 sec. (5.29 ticks)
Tried aggregator 1 time.
Detecting symmetries...
Reduced MIP has 3495 rows, 7238 columns, and 26706 nonzeros.
Reduced MIP has 7238 binaries, 0 generals, 0 SOSs, and 0 indicators.
Presolve time = 0.02 sec. (20.39 ticks)
Probing fixed 60 vars, tightened 0 bounds.
Probing time = 0.06 sec. (29.14 ticks)
Clique table members: 17330.
MIP emphasis: balance optimality and feasibility.
MIP search method: dynamic search.
Parallel mode: opportunistic, using up to 40 threads.
Root relaxation solution time = 0.11 sec. (88.65 ticks)

        Nodes                                         Cuts/
   Node  Left     Objective  IInf  Best Integer    Best Bound    ItCnt     Gap

*     0+    0                            0.0000  -1.54000e+13              --- 
*     0+    0                      -4.58000e+12  -1.54000e+13           236.24%
*     0+    0                      -4.80000e+12  -1.54000e+13           220.83%
*     0+    0                      -6.00000e+12  -1.54000e+13           156.67%
*     0+    0                      -6.00000e+12  -1.54000e+13           156.67%
*     0+    0                      -6.99000e+12  -1.54000e+13           120.31%
*     0+    0                      -7.20000e+12  -1.54000e+13           113.89%
      0     0  -1.53900e+13    63  -7.20000e+12  -1.53900e+13     2485  113.75%
*     0+    0                      -1.41900e+13  -1.53900e+13             8.46%
*     0+    0                      -1.53900e+13  -1.53900e+13             0.00%
      0     0  -1.53900e+13   136  -1.53900e+13      Cuts: 63     2949    0.00%
*     0+    0                      -1.53900e+13  -1.53900e+13             0.00%
      0     0  -1.53900e+13   147  -1.53900e+13     Cuts: 104     3270    0.00%
*     0+    0                      -1.53900e+13  -1.53900e+13             0.00%
*     0+    0                      -1.53900e+13  -1.53900e+13             0.00%
*     0+    0                      -1.53900e+13  -1.53900e+13             0.00%
      0     6    infeasible        -1.53900e+13  -1.53900e+13     6672    0.00%
Elapsed time = 2.67 sec. (1264.57 ticks, tree = 0.02 MB, solutions = 13)
    708    57        cutoff        -1.53900e+13  -1.53900e+13    21018    0.00%
   1672   130        cutoff        -1.53900e+13  -1.53900e+13    40446    0.00%
   2088   192  -1.53900e+13   197  -1.53900e+13  -1.53900e+13    48373    0.00%
   2753   498        cutoff        -1.53900e+13  -1.53900e+13   109861    0.00%
   3849   600  -1.53900e+13   110  -1.53900e+13  -1.53900e+13   136546    0.00%
   4879   867  -1.53900e+13    73  -1.53900e+13  -1.53900e+13   191030    0.00%
   6016  1152  -1.53900e+13    64  -1.53900e+13  -1.53900e+13   340527    0.00%
   7228  1079        cutoff        -1.53900e+13  -1.53900e+13   235830    0.00%
   8380   994  -1.53900e+13    86  -1.53900e+13  -1.53900e+13   284976    0.00%
  12795  1872  -1.53900e+13   101  -1.53900e+13  -1.53900e+13   496643    0.00%
Elapsed time = 7.81 sec. (4366.02 ticks, tree = 4.92 MB, solutions = 21)
  15538  2879        cutoff        -1.53900e+13  -1.53900e+13   729495    0.00%

Performing restart 1

Repeating presolve.
Tried aggregator 3 times.
MIP Presolve eliminated 244 rows and 959 columns.
MIP Presolve added 2 rows and 0 columns.
MIP Presolve modified 1522 coefficients.
Aggregator did 108 substitutions.
Reduced MIP has 3129 rows, 6155 columns, and 22399 nonzeros.
Reduced MIP has 6155 binaries, 0 generals, 0 SOSs, and 0 indicators.
Presolve time = 0.09 sec. (86.50 ticks)
Tried aggregator 2 times.
MIP Presolve eliminated 22 rows and 57 columns.
MIP Presolve modified 2 coefficients.
Aggregator did 15 substitutions.
Reduced MIP has 3092 rows, 6076 columns, and 22136 nonzeros.
Reduced MIP has 6076 binaries, 0 generals, 0 SOSs, and 0 indicators.
Presolve time = 0.04 sec. (38.06 ticks)
Tried aggregator 2 times.
MIP Presolve eliminated 6 rows and 11 columns.
Aggregator did 2 substitutions.
Reduced MIP has 3084 rows, 6061 columns, and 22086 nonzeros.
Reduced MIP has 6061 binaries, 0 generals, 0 SOSs, and 0 indicators.
Presolve time = 0.04 sec. (33.41 ticks)
Represolve time = 0.35 sec. (253.99 ticks)
  15711     0  -1.53900e+13   229  -1.53900e+13      Cuts: 46  1027441    0.00%
  15711     0  -1.53900e+13   323  -1.53900e+13      Cuts: 38  1027684    0.00%
  15711     0  -1.53900e+13   363  -1.53900e+13      Cuts: 63  1028263    0.00%
  15711     0  -1.53900e+13   339  -1.53900e+13      Cuts: 35  1028553    0.00%
  15711     0  -1.53900e+13   416  -1.53900e+13      Cuts: 35  1028825    0.00%
  15711     0  -1.53900e+13   438  -1.53900e+13      Cuts: 45  1029143    0.00%
  15711    15        cutoff        -1.53900e+13  -1.53900e+13  1042744    0.00%
  18163    58        cutoff        -1.53900e+13  -1.53900e+13  1138243    0.00%
  21134    20        cutoff        -1.53900e+13  -1.53900e+13  1220086    0.00%

GUB cover cuts applied:  10
Clique cuts applied:  15
Cover cuts applied:  263
Mixed integer rounding cuts applied:  13
Zero-half cuts applied:  51
Gomory fractional cuts applied:  19

Root node processing (before b&c):
  Real time             =    1.29 sec. (1255.65 ticks)
Parallel b&c, 40 threads:
  Real time             =   16.20 sec. (9700.49 ticks)
  Sync time (average)   =    4.19 sec.
  Wait time (average)   =    0.08 sec.
                          ------------
Total (root+branch&cut) =   17.50 sec. (10956.14 ticks)

Solution pool: 23 solutions saved.

MIP - Integer optimal solution:  Objective = -1.5389999489e+13
Solution time =   17.61 sec.  Iterations = 1228468  Nodes = 21894
Deterministic time = 10956.17 ticks  (622.00 ticks/sec)

CPLEX> Solution 'p24' written to file 'ee.sol'.
CPLEX> 